CO2 crystal                             
   5.5500013527037302     
     1.0000000000000000    0.0000000000000000    0.0000000000000000
     0.0000000000000000    1.0000000000000000    0.0000000000000000
     0.0000000000000000    0.0000000000000000    1.0000000000000000
   C    O 
     4     8
Direct
  0.0001599316901633  0.0002341858908181  0.0000055901030862
  0.4999222534515937  0.9997146129041425  0.5000818240014979
  0.0001665755413995  0.5004701255416535  0.5000940942835115
  0.5004072587063035  0.4997449974820327  0.0003231480742443
  0.8785818387795317  0.8780762884155635  0.1211350659379562
  0.1217463357889841  0.1223862569935719  0.8788799094319231
  0.6215058180009763  0.8777687885028911  0.6214139487566399
  0.3783582342800571  0.1216725051460017  0.3787423803326035
  0.1216662876539516  0.6228398801576063  0.6210854077555155
  0.8786745203193007  0.3780937061223142  0.3791055614638168
  0.6220913363452993  0.3778388740359304  0.8790519858038692
  0.3787196094424559  0.6216597788074836  0.1215810840553289

  0.00000000E+00  0.00000000E+00  0.00000000E+00
  0.00000000E+00  0.00000000E+00  0.00000000E+00
  0.00000000E+00  0.00000000E+00  0.00000000E+00
  0.00000000E+00  0.00000000E+00  0.00000000E+00
  0.00000000E+00  0.00000000E+00  0.00000000E+00
  0.00000000E+00  0.00000000E+00  0.00000000E+00
  0.00000000E+00  0.00000000E+00  0.00000000E+00
  0.00000000E+00  0.00000000E+00  0.00000000E+00
  0.00000000E+00  0.00000000E+00  0.00000000E+00
  0.00000000E+00  0.00000000E+00  0.00000000E+00
  0.00000000E+00  0.00000000E+00  0.00000000E+00
  0.00000000E+00  0.00000000E+00  0.00000000E+00
