System = fcc Si

ENCUT = 240

ISMEAR = -5      ! tetrahedron method
LORBIT = 11
